# Solution for model GasLib-40
# Objective value = 1.0635682756232367e+01
loadshed[innode_1] 0
loadshed[innode_2] 0
loadshed[innode_3] 0
loadshed[innode_4] 0
loadshed[innode_5] 0
loadshed[innode_6] 0
loadshed[innode_7] 0
loadshed[innode_8] 0
loadshed[source_1] -2.4191799991885432e-01
loadshed[source_2] -0.0691847346377692
loadshed[source_3] 3.7837874232718327e-01
loadshed[sink_1] 0
loadshed[sink_2] 0
loadshed[sink_3] 0
loadshed[sink_4] 0
loadshed[sink_5] 0
loadshed[sink_6] 0
loadshed[sink_7] 0
loadshed[sink_8] 0
loadshed[sink_9] 0
loadshed[sink_10] 0
loadshed[sink_11] 0
loadshed[sink_12] 6.5033474178236117e-01
loadshed[sink_13] 0
loadshed[sink_14] 0
loadshed[sink_15] 0
loadshed[sink_16] 0
loadshed[sink_17] 0
loadshed[sink_18] 0
loadshed[sink_19] 0
loadshed[sink_20] 0
loadshed[sink_21] 0
loadshed[sink_22] 0
loadshed[sink_23] 0
loadshed[sink_24] 0
loadshed[sink_25] 0
loadshed[sink_26] 0
loadshed[sink_27] 0
loadshed[sink_28] 0
loadshed[sink_29] 0
flow[source_1,sink_3] 1.9633516158439386e+02
flow[innode_1,sink_16] 1.6354166666666970e+01
flow[innode_6,sink_13] 1.6206889368599796e+01
flow[sink_13,sink_14] -1.4727729806687151e-01
flow[sink_14,sink_10] -1.6501443964733539e+01
flow[sink_25,sink_26] 1.6895626477754342e+02
flow[sink_26,sink_9] 1.2782540668216271e+02
flow[sink_9,sink_18] 1.1147124001549604e+02
flow[sink_26,sink_4] 2.4776691428714116e+01
flow[sink_4,sink_20] 8.42252476204743
flow[sink_18,sink_6] 9.5117073348829365e+01
flow[sink_25,innode_8] -1.6362682825105753e+02
flow[sink_6,sink_7] 46.0545733488284
flow[sink_6,sink_22] 3.2708333333333641e+01
flow[sink_7,sink_24] 3.8426817243767637e+01
flow[sink_22,sink_1] 1.6354166666666970e+01
flow[sink_24,sink_21] 2.2072650577100969e+01
flow[sink_21,sink_12] 5.7184839104343022e+00
flow[sink_7,sink_5] -8.7264105616048653e+00
flow[sink_5,sink_17] -2.5080577228271636e+01
flow[sink_17,sink_4] 0
flow[sink_17,sink_8] -4.1434743894938222e+01
flow[sink_3,sink_23] 16.3541666666697
flow[sink_8,sink_20] -5.7788910561604894e+01
flow[sink_25,sink_20] 6.5720552466224149e+01
flow[sink_25,sink_15] -1.0361104502797662e+02
flow[sink_15,sink_29] -6.6412116150270151e+01
flow[sink_29,sink_28] 1.6354166666667879e+01
flow[sink_29,sink_2] 6.9907262211039779e+01
flow[sink_2,sink_15] 5.3553095544373150e+01
flow[sink_29,innode_7] -1.6902771169464455e+02
flow[innode_4,sink_19] 0
flow[sink_19,innode_3] 6.5563943964733824e+01
flow[innode_4,innode_5] 9.8272277298067166e+01
flow[sink_27,innode_5] -9.8272277298067166e+01
flow[sink_27,sink_19] 81.9181106314005
flow[sink_10,sink_11] 3.2708333333333641e+01
flow[sink_10,innode_2] 0
flow[sink_10,innode_3] -6.5563943964733824e+01
flow[innode_6,sink_25] -1.6206889368599796e+01
flow[sink_11,innode_1] 1.6354166666666970e+01
flow[sink_19,innode_2] 0
flow[source_3,innode_4] 9.8272277298067166e+01
flow[source_2,innode_7] 1.6902771169464455e+02
flow[sink_3,innode_8] 1.6362682825105753e+02
pressure[innode_1] 7.4583848961337011e+01
pressure[innode_2] 7.8371362748142545e+01
pressure[innode_3] 78.2261788185439
pressure[innode_4] 81.01325
pressure[innode_5] 8.0945653145761156e+01
pressure[innode_6] 7.4044137447241312e+01
pressure[innode_7] 81.01325
pressure[innode_8] 8.0356976557573645e+01
pressure[source_1] 81.01325
pressure[source_2] 81.01325
pressure[source_3] 81.01325
pressure[sink_1] 4.5819618068509357e+01
pressure[sink_2] 74.7215910305318
pressure[sink_3] 8.0356976557573645e+01
pressure[sink_4] 5.8994474268283980e+01
pressure[sink_5] 5.0917722076245283e+01
pressure[sink_6] 4.7920695678896728e+01
pressure[sink_7] 4.7288476164305209e+01
pressure[sink_8] 5.4349484324105958e+01
pressure[sink_9] 5.4493966443250159e+01
pressure[sink_10] 7.4735550268940557e+01
pressure[sink_11] 7.4583848961337011e+01
pressure[sink_12] 1.0132500000000007e+00
pressure[sink_13] 7.3954791574575040e+01
pressure[sink_14] 7.3955055139845186e+01
pressure[sink_15] 7.4546751976491564e+01
pressure[sink_16] 7.3562199126519332e+01
pressure[sink_17] 5.2786043792132325e+01
pressure[sink_18] 5.0460604738055139e+01
pressure[sink_19] 7.8371362748142545e+01
pressure[sink_20] 5.8376558689137390e+01
pressure[sink_21] 3.0481995491760445e+00
pressure[sink_22] 4.6883387210864363e+01
pressure[sink_23] 8.0192258545913859e+01
pressure[sink_24] 3.2926336463792270e+00
pressure[sink_25] 7.4044137447241312e+01
pressure[sink_26] 6.2144646941470754e+01
pressure[sink_27] 8.0130174831830615e+01
pressure[sink_28] 7.6197138603850874e+01
pressure[sink_29] 7.6492420877468064e+01
interdiction[source_1,sink_3] 0
interdiction[innode_1,sink_16] 0
interdiction[innode_6,sink_13] 0
interdiction[sink_13,sink_14] 0
interdiction[sink_14,sink_10] 0
interdiction[sink_25,sink_26] 0
interdiction[sink_26,sink_9] 0
interdiction[sink_9,sink_18] 0
interdiction[sink_26,sink_4] 0
interdiction[sink_4,sink_20] 0
interdiction[sink_18,sink_6] 0
interdiction[sink_25,innode_8] 0
interdiction[sink_6,sink_7] 0
interdiction[sink_6,sink_22] 0
interdiction[sink_7,sink_24] 0
interdiction[sink_22,sink_1] 0
interdiction[sink_24,sink_21] 0
interdiction[sink_21,sink_12] 0
interdiction[sink_7,sink_5] 0
interdiction[sink_5,sink_17] 0
interdiction[sink_17,sink_4] 1
interdiction[sink_17,sink_8] 0
interdiction[sink_3,sink_23] 0
interdiction[sink_8,sink_20] 0
interdiction[sink_25,sink_20] 0
interdiction[sink_25,sink_15] 0
interdiction[sink_15,sink_29] 0
interdiction[sink_29,sink_28] 0
interdiction[sink_29,sink_2] 0
interdiction[sink_2,sink_15] 0
interdiction[sink_29,innode_7] 0
interdiction[innode_4,sink_19] 1
interdiction[sink_19,innode_3] 0
interdiction[innode_4,innode_5] 0
interdiction[sink_27,innode_5] 0
interdiction[sink_27,sink_19] 0
interdiction[sink_10,sink_11] 0
interdiction[sink_10,innode_2] 1
interdiction[sink_10,innode_3] 0
interdiction[innode_6,sink_25] 0
interdiction[sink_11,innode_1] 0
interdiction[sink_19,innode_2] 0
interdiction[source_3,innode_4] 0
interdiction[source_2,innode_7] 0
interdiction[sink_3,innode_8] 0
WCcheckFlow[source_1,sink_3] 39
WCcheckFlow[innode_1,sink_16] 1
WCcheckFlow[innode_6,sink_13] 13
WCcheckFlow[sink_13,sink_14] 12
WCcheckFlow[sink_14,sink_10] 11
WCcheckFlow[sink_25,sink_26] 15
WCcheckFlow[sink_26,sink_9] 12
WCcheckFlow[sink_9,sink_18] 11
WCcheckFlow[sink_26,sink_4] 2
WCcheckFlow[sink_4,sink_20] 1
WCcheckFlow[sink_18,sink_6] 10
WCcheckFlow[sink_25,innode_8] -36
WCcheckFlow[sink_6,sink_7] 7
WCcheckFlow[sink_6,sink_22] 2
WCcheckFlow[sink_7,sink_24] 3
WCcheckFlow[sink_22,sink_1] 1
WCcheckFlow[sink_24,sink_21] 2
WCcheckFlow[sink_21,sink_12] 1
WCcheckFlow[sink_7,sink_5] 3
WCcheckFlow[sink_5,sink_17] 2
WCcheckFlow[sink_17,sink_4] 0
WCcheckFlow[sink_17,sink_8] 1
WCcheckFlow[sink_3,sink_23] 1
WCcheckFlow[sink_8,sink_20] 0
WCcheckFlow[sink_25,sink_20] 0
WCcheckFlow[sink_25,sink_15] 6
WCcheckFlow[sink_15,sink_29] 5
WCcheckFlow[sink_29,sink_28] 1
WCcheckFlow[sink_29,sink_2] 1
WCcheckFlow[sink_2,sink_15] 0
WCcheckFlow[sink_29,innode_7] 2
WCcheckFlow[innode_4,sink_19] 0
WCcheckFlow[sink_19,innode_3] -6
WCcheckFlow[innode_4,innode_5] -2
WCcheckFlow[sink_27,innode_5] 3
WCcheckFlow[sink_27,sink_19] -4
WCcheckFlow[sink_10,sink_11] 3
WCcheckFlow[sink_10,innode_2] 0
WCcheckFlow[sink_10,innode_3] 7
WCcheckFlow[innode_6,sink_25] -14
WCcheckFlow[sink_11,innode_1] 2
WCcheckFlow[sink_19,innode_2] 1
WCcheckFlow[source_3,innode_4] -1
WCcheckFlow[source_2,innode_7] -1
WCcheckFlow[sink_3,innode_8] 37
